Optimal - objective value -893.00000000
      9 x_9                      1         46.2950819672131
     19 x_19                     1         50.4098360655738
     27 x_27                     1         3.45901639344262
     37 x_37                     1                       0
     47 x_47                     1         67.3934426229508
     53 x_53                     1                       0
     67 x_67                     1         30.6065573770492
     73 x_73                     1         58.4754098360656
     77 x_77                     1         240.237704918033
     85 x_85                     1                       0
     93 x_93                     1         70.6639344262295
